
Gurobi 8.1.0 (win64, Python) logging started 04/24/19 15:25:38

Academic license - for non-commercial use only
Read LP format model from file OR604 Model File v2.lp
Reading time = 0.54 seconds
: 25888 rows, 19166 columns, 1028139 nonzeros

Gurobi 8.1.0 (win64, Python) logging started 04/24/19 15:26:08

Academic license - for non-commercial use only
Read LP format model from file OR604 Model File v2.lp
Reading time = 0.56 seconds
: 25888 rows, 19166 columns, 1028139 nonzeros

Gurobi 8.1.0 (win64, Python) logging started 04/24/19 15:26:32

Academic license - for non-commercial use only
Read LP format model from file OR604 Model File v2.lp
Reading time = 0.54 seconds
: 25888 rows, 19166 columns, 1028139 nonzeros

Gurobi 8.1.0 (win64, Python) logging started 04/24/19 15:27:00

Academic license - for non-commercial use only
Read LP format model from file OR604 Model File v2.lp
Reading time = 0.57 seconds
: 25888 rows, 19166 columns, 1028139 nonzeros

Gurobi 8.1.0 (win64, Python) logging started 04/24/19 15:27:54

Academic license - for non-commercial use only
Read LP format model from file OR604 Model File v2.lp
Reading time = 0.59 seconds
: 25888 rows, 19166 columns, 1028139 nonzeros

Gurobi 8.1.0 (win64, Python) logging started 04/24/19 15:28:22

Academic license - for non-commercial use only
Read LP format model from file OR604 Model File v2.lp
Reading time = 0.54 seconds
: 25888 rows, 19166 columns, 1028139 nonzeros

Gurobi 8.1.0 (win64, Python) logging started 04/24/19 15:28:45

Academic license - for non-commercial use only
Read LP format model from file OR604 Model File v2.lp
Reading time = 0.54 seconds
: 25888 rows, 19166 columns, 1028139 nonzeros

Gurobi 8.1.0 (win64, Python) logging started 04/24/19 15:29:30

Academic license - for non-commercial use only
Read LP format model from file OR604 Model File v2.lp
Reading time = 0.53 seconds
: 25888 rows, 19166 columns, 1028139 nonzeros

Gurobi 8.1.0 (win64, Python) logging started 04/24/19 15:29:40

Academic license - for non-commercial use only
Read LP format model from file OR604 Model File v2.lp
Reading time = 0.55 seconds
: 25888 rows, 19166 columns, 1028139 nonzeros

Gurobi 8.1.0 (win64, Python) logging started 04/24/19 15:30:27

Academic license - for non-commercial use only
Read LP format model from file OR604 Model File v2.lp
Reading time = 0.56 seconds
: 25888 rows, 19166 columns, 1028139 nonzeros

Gurobi 8.1.0 (win64, Python) logging started 04/24/19 15:30:41

Academic license - for non-commercial use only
Read LP format model from file OR604 Model File v2.lp
Reading time = 0.69 seconds
: 25888 rows, 19166 columns, 1028139 nonzeros

Gurobi 8.1.0 (win64, Python) logging started 04/24/19 15:32:42

Academic license - for non-commercial use only
Read LP format model from file OR604 Model File v2.lp
Reading time = 0.53 seconds
: 25888 rows, 19166 columns, 1028139 nonzeros

Gurobi 8.1.0 (win64, Python) logging started 04/24/19 15:33:13

Academic license - for non-commercial use only
Read LP format model from file OR604 Model File v2.lp
Reading time = 0.55 seconds
: 25888 rows, 19166 columns, 1028139 nonzeros

Gurobi 8.1.0 (win64, Python) logging started 04/24/19 15:34:37

Academic license - for non-commercial use only
Read LP format model from file OR604 Model File v2.lp
Reading time = 0.55 seconds
: 25888 rows, 19166 columns, 1028139 nonzeros

Gurobi 8.1.0 (win64, Python) logging started 04/24/19 15:35:49

Academic license - for non-commercial use only
Read LP format model from file OR604 Model File v2.lp
Reading time = 0.56 seconds
: 25888 rows, 19166 columns, 1028139 nonzeros

Gurobi 8.1.0 (win64, Python) logging started 04/24/19 15:37:12

Academic license - for non-commercial use only
Read LP format model from file OR604 Model File v2.lp
Reading time = 0.56 seconds
: 25888 rows, 19166 columns, 1028139 nonzeros

Gurobi 8.1.0 (win64, Python) logging started 04/24/19 15:37:43

Academic license - for non-commercial use only
Read LP format model from file OR604 Model File v2.lp
Reading time = 0.54 seconds
: 25888 rows, 19166 columns, 1028139 nonzeros

Gurobi 8.1.0 (win64, Python) logging started 04/24/19 15:38:40

Academic license - for non-commercial use only
Read LP format model from file OR604 Model File v2.lp
Reading time = 0.57 seconds
: 25888 rows, 19166 columns, 1028139 nonzeros

Gurobi 8.1.0 (win64, Python) logging started 04/24/19 15:39:41

Academic license - for non-commercial use only
Read LP format model from file OR604 Model File v2.lp
Reading time = 0.54 seconds
: 25888 rows, 19166 columns, 1028139 nonzeros

Gurobi 8.1.0 (win64, Python) logging started 04/24/19 15:40:22

Academic license - for non-commercial use only
Read LP format model from file OR604 Model File v2.lp
Reading time = 0.57 seconds
: 25888 rows, 19166 columns, 1028139 nonzeros

Gurobi 8.1.0 (win64, Python) logging started 04/24/19 15:40:41

Academic license - for non-commercial use only
Read LP format model from file OR604 Model File v2.lp
Reading time = 0.59 seconds
: 25888 rows, 19166 columns, 1028139 nonzeros
